tsp_instances/TSP20/instance121.tsp
NODE_COORD_SECTION
0 26 7
1 105 190
2 179 160
3 141 69
4 18 160
5 17 169
6 166 73
7 188 22
8 147 159
9 141 178
10 191 77
11 136 111
12 17 34
13 161 107
14 6 50
15 42 43
16 102 165
17 67 188
18 142 64
19 195 182
