tsp_instances/TSP20/instance121.opt.tour
TOUR_SECTION
1
13
15
5
6
18
2
17
10
20
3
9
12
14
7
11
8
19
4
16
-1